c Source: TUDataset MUTAG, graph #124
c Original: n=11, m=11
c Augmented: +7 edges, n=14 -> m=18, circuit_rank=5
c Augmented to satisfy Eulerian condition (no parallel edges)
p sp 14
e 1 2
e 3 4
e 4 5
e 4 8
e 9 11
e 6 7
e 3 9
e 5 6
e 9 10
e 2 3
e 1 6
e 3 12
e 9 12
e 4 13
e 8 13
e 6 14
e 7 14
e 10 11
